
  22    0


   0  11 2 3 4 5 6 7 8 18 19 20 21 
   9   4 17 16 13 9 
   4   4 15 14 12 9 
   5   4 13 11 10 9 
   8   3 12 11 10 
   9   2 11 9 
   5   1 10 
   7   1 9 
   5   1 22
   3   1 22
   9   1 22
   1   1 22
   2   1 22
   6   1 22
   7   1 22
   5   1 22
   4   1 22
   8   1 22
   6   1 22
   6   1 22
   3   1 22
   0   0 
